W=6;
H=4;

MAX_TIME=14;
MAX_TRACKS=9;

TARGET=(3,6);

TRAINS=[(2,2,RIGHT),(2,1,RIGHT)];
DECOYS=[];

INIT_POS=[
(2,1,STRAIGHT_RL),
(2,2,STRAIGHT_RL),
(2,3,ESWITCH_L_R_D),
(2,4,ESWITCH_T_D_L),
(3,3,ESWITCH_T_D_R),
(3,4,ESWITCH_R_L_T),
(3,6,STRAIGHT_RL),
];
TUNNEL_PAIRS=[];

GATES=[];
ACTIVATIONS=[];

DSWITCHES=[];
STATIONS=[];
